61
120
84	4
83	7
82	9
81	3
80	11
79	9
78	2
77	4
76	4
75	6
74	2
73	4
72	9
71	7
70	8
69	9
68	10
67	5
66	6
65	7
64	6
63	7
62	5
61	5
60	3
59	3
58	10
57	8
56	7
55	6
54	11
53	3
52	11
51	7
50	4
49	6
48	5
47	3
46	6
45	8
44	5
43	8
42	9
41	7
40	7
39	8
38	4
37	11
36	7
35	9
34	6
33	2
32	8
31	8
30	6
29	6
28	7
27	7
26	10
25	8
24	7
